c 9 PostgreSQL
c 4 Storage
c 3 MySQL
c 2 License
c 7 PHP
c 1 Open Source
c 5 Wiki
c 8 Programming Language
c 6 Proprietary License
c 11 False
c 10 Java
p cnf 11 XXXXXX
-1 2 0
-3 4 0
-4 5 0
-6 2 0
-7 8 0
-9 4 0
-8 5 0
-6 2 0
-1 2 0
-8 5 0
-10 8 0
-4 5 0
-2 5 0
-1 2 0
-2 5 0
-3 4 0
-1 2 0
-3 4 0
-9 4 0
-10 8 0
-6 2 0
-3 4 0
-9 4 0
-6 2 0
-9 4 0
-7 8 0
5 0
11 5 0
-2 6 1 0
-6 -1 0
-4 9 3 0
-9 -3 0
-5 4 0
-5 2 0
-8 10 7 0
-10 -7 0
-6 -8 0
-9 6 0
-6 9 0